DATASET = "thpack1";
INSTANCE = "066";

WIDTH = 233;
HEIGHT = 220;
LENGTH = 587;

NO_OF_SHAPES = 3;
size = [|
  87,45,32 |
  84,63,46 |
  84,67,44 |
|];

verticality = [|
  0,1,1 |
  1,1,1 |
  1,1,1 |
|];

box_count = [
  47,
  52,
  46,
];
